
set I:= 2	3	4 5 6	7 	8	9	10	11 12 13	14	15 16	17	18	19	20 21 22 
23 24 25 26 27 28 29 30 31 32 33 34 35 36 37 38 39 40 41 42 43 44 45 46 47 48 49 50 51
52 53 54 55 56 57 58 59 60 61 62 63 64 65 66 67 68 69 70 71 72;

set Nodos:= 1 2	3	4 5 6	7 	8	9	10	11 12 13	14	15 16	17	18	19	20 21 22
23 24 25 26 27 28 29 30 31 32 33 34 35 36 37 38 39 40 41 42 43 44 45 46 47 48 49 50 51
52 53 54 55 56 57 58 59 60 61 62 63 64 65 66 67 68 69 70 71 72;

set K:= 1 2 3;
set R:= A B C;
set T:= A B C;


param: xcoord	ycoord :=
1	0	0
2	-12	-6
3	-15	-5
4	-1	-18
5	2	-21
6	-1	-17
7	-9	-12
8	2	-22
9	1	-21
10	7	-25
11	-7	-17
12	-11	-5
13	-14	-9
14	-14	-8
15	-11	-2
16	-14	-5
17	-15	-9
18	-15	-8
19	-9	-6
20	-14	-4
21	3	6
22	5	9
23	5	10
24	2	8
25	1	9
26	1	10
27	2	9
28	6	14
29	5	12
30	3	7
31	4	8
32	-6	1
33	-6	2
34	-8	-2
35	-7	2
36	-7	-3
37	-7	-2
38	-20	12
39	-20	13
40	-12	10
41	-20	15
42	-6	8
43	2	21
44	2	22
45	1	21
46	-1	24
47	1	22
48	-2	20
49	-2	21
50	-4	18
51	-4	19
52	-5	18
53	-5	26
54	1	23
55	-6	5
56	-6	6
57	-9	6
58	-9	7
59	-12	5
60	-12	6
61	-11	3
62	-11	4
63	-14	4
64	-14	5
65	-15	4
66	-15	5
67	-16	7
68	-16	8
69	-15	10
70	-20	10
71	-5	19
72	-9	-11

;

param Q:=
1   50000
2   50000
3   50000
;

param P:=
A   25000
B   20000
C   10000
;


param alfa:=
A   1
B    .70
C    .30
;

param q:  A   B   C:=
1	0	0	0
2	7063	0	0
3	0	51	0
4	0	0	23
5	3074	0	0
6	0	349	0
7	0	0	1047
8	698	0	0
9	0	3001	0
10	0	0	31
11	1135	0	0
12	0	21611	0
13	0	0	57
14	51	0	0
15	0	551	0
16	0	0	179
17	6	0	0
18	0	528	0
19	0	0	2832
20	1514	0	0
21	0	889	0
22	0	0	2554
23	1215	0	0
24	0	1810	0
25	0	0	3050
26	4	0	0
27	0	1563	0
28	0	0	741
29	1532	0	0
30	0	709	0
31	0	0	1022
32	883	0	0
33	0	1689	0
34	0	0	10235
35	29	0	0
36	0	2894	0
37	0	0	450
38	411	0	0
39	0	207	0
40	0	0	496
41	1021	0	0
42	0	117	0
43	0	0	46
44	8	0	0
45	0	18	0
46	0	0	561
47	1877	0	0
48	0	3542	0
49	0	0	801
50	967	0	0
51	0	62	0
52	0	0	1366
53	230	0	0
54	0	4	0
55	0	0	12
56	145	0	0
57	0	7149	0
58	0	0	2250
59	383	0	0
60	0	134	0
61	0	0	1947
62	182	0	0
63	0	3934	0
64	0	0	468
65	18	0	0
66	0	133	0
67	0	0	2340
68	754	0	0
69	0	1264	0
70	0	0	806
71	3665	0	0
72	0	2452	0
;

param a:  A   B   C:=
1	0	0	0
2	1	0	0
3	0	1	0
4	0	0	1
5	1	0	0
6	0	1	0
7	0	0	1
8	1	0	0
9	0	1	0
10	0	0	1
11	1	0	0
12	0	1	0
13	0	0	1
14	1	0	0
15	0	1	0
16	0	0	1
17	1	0	0
18	0	1	0
19	0	0	1
20	1	0	0
21	0	1	0
22	0	0	1
23	1	0	0
24	0	1	0
25	0	0	1
26	1	0	0
27	0	1	0
28	0	0	1
29	1	0	0
30	0	1	0
31	0	0	1
32	1	0	0
33	0	1	0
34	0	0	1
35	1	0	0
36	0	1	0
37	0	0	1
38	1	0	0
39	0	1	0
40	0	0	1
41	1	0	0
42	0	1	0
43	0	0	1
44	1	0	0
45	0	1	0
46	0	0	1
47	1	0	0
48	0	1	0
49	0	0	1
50	1	0	0
51	0	1	0
52	0	0	1
53	1	0	0
54	0	1	0
55	0	0	1
56	1	0	0
57	0	1	0
58	0	0	1
59	1	0	0
60	0	1	0
61	0	0	1
62	1	0	0
63	0	1	0
64	0	0	1
65	1	0	0
66	0	1	0
67	0	0	1
68	1	0	0
69	0	1	0
70	0	0	1
71	1	0	0
72	0	1	0

;

param qu :=
1	0
2	7063
3	51
4	23
5	3074
6	349
7	1047
8	698
9	3001
10	31
11	1135
12	21611
13	57
14	51
15	551
16	179
17	6
18	528
19	2832
20	1514
21	889
22	2554
23	1215
24	1810
25	3050
26	4
27	1563
28	741
29	1532
30	709
31	1022
32	883
33	1689
34	10235
35	29
36	2894
37	450
38	411
39	207
40	496
41	1021
42	117
43	46
44	8
45	18
46	561
47	1877
48	3542
49	801
50	967
51	62
52	1366
53	230
54	4
55	12
56	145
57	7149
58	2250
59	383
60	134
61	1947
62	182
63	3934
64	468
65	18
66	133
67	2340
68	754
69	1264
70	806
71	3665
72	2452

;

set IT:=
(	2	,	A	)
(	3	,	B	)
(	4	,	C	)
(	5	,	A	)
(	6	,	B	)
(	7	,	C	)
(	8	,	A	)
(	9	,	B	)
(	10	,	C	)
(	11	,	A	)
(	12	,	B	)
(	13	,	C	)
(	14	,	A	)
(	15	,	B	)
(	16	,	C	)
(	17	,	A	)
(	18	,	B	)
(	19	,	C	)
(	20	,	A	)
(	21	,	B	)
(	22	,	C	)
(	23	,	A	)
(	24	,	B	)
(	25	,	C	)
(	26	,	A	)
(	27	,	B	)
(	28	,	C	)
(	29	,	A	)
(	30	,	B	)
(	31	,	C	)
(	32	,	A	)
(	33	,	B	)
(	34	,	C	)
(	35	,	A	)
(	36	,	B	)
(	37	,	C	)
(	38	,	A	)
(	39	,	B	)
(	40	,	C	)
(	41	,	A	)
(	42	,	B	)
(	43	,	C	)
(	44	,	A	)
(	45	,	B	)
(	46	,	C	)
(	47	,	A	)
(	48	,	B	)
(	49	,	C	)
(	50	,	A	)
(	51	,	B	)
(	52	,	C	)
(	53	,	A	)
(	54	,	B	)
(	55	,	C	)
(	56	,	A	)
(	57	,	B	)
(	58	,	C	)
(	59	,	A	)
(	60	,	B	)
(	61	,	C	)
(	62	,	A	)
(	63	,	B	)
(	64	,	C	)
(	65	,	A	)
(	66	,	B	)
(	67	,	C	)
(	68	,	A	)
(	69	,	B	)
(	70	,	C	)
(	71	,	A	)
(	72	,	B	)

;